db/data/14863120362681332193173759364188892014.z3.out
-------------------
2500.259050781
